clingo version 5.6.2
Reading from ...ogen_asp_scripts/ijp_expt_cases-155.dl
Solving...
Answer: 1
res(3) witness(2,6,7) witness(4,7,6) witness(6,3,4) witness(6,6,7) witness(7,1,2) witness(7,7,6) number_of_witnesses(6)
SATISFIABLE

Models       : 1+
Calls        : 1
Time         : 2014.736s (Solving: 1981.44s 1st Model: 1981.35s Unsat: 0.00s)
CPU Time     : 124649.077s
Threads      : 64       (Winner: 49)
